<?xml version = "1.0" encoding="UTF-8" standalone="yes"?>
<CPLEXSolution version="1.2">
 <header
   problemName="IloCplex"
   solutionName="p0"
   solutionIndex="-1"
   objectiveValue="-5834291384"
   solutionTypeValue="3"
   solutionTypeString="primal"
   solutionStatusValue="127"
   solutionStatusString="integer feasible solution"
   solutionMethodString="mip"
   primalFeasible="0"
   dualFeasible="0"
   writeLevel="3"/>
 <quality
   epInt="1.0000000000000001e-05"
   epRHS="9.9999999999999995e-07"
   maxIntInfeas="0"
   maxPrimalInfeas="0"
   maxX="1"
   maxSlack="1"/>
 <variables>
  <variable name="w2_0" index="34" value="1"/>
  <variable name="w2_1" index="35" value="1"/>
  <variable name="w2_3" index="37" value="1"/>
  <variable name="w2_5" index="39" value="1"/>
  <variable name="w2_16" index="50" value="1"/>
  <variable name="w4_0" index="68" value="1"/>
  <variable name="w4_1" index="69" value="1"/>
  <variable name="w4_3" index="71" value="1"/>
  <variable name="w4_5" index="73" value="1"/>
  <variable name="w4_16" index="84" value="1"/>
  <variable name="w5_0" index="85" value="1"/>
  <variable name="w5_1" index="86" value="1"/>
  <variable name="w5_3" index="88" value="1"/>
  <variable name="w5_5" index="90" value="1"/>
  <variable name="w5_16" index="101" value="1"/>
  <variable name="w7_0" index="119" value="1"/>
  <variable name="w7_1" index="120" value="1"/>
  <variable name="w7_3" index="122" value="1"/>
  <variable name="w7_5" index="124" value="1"/>
  <variable name="w7_16" index="135" value="1"/>
  <variable name="w8_0" index="136" value="1"/>
  <variable name="w8_1" index="137" value="1"/>
  <variable name="w8_3" index="139" value="1"/>
  <variable name="w8_5" index="141" value="1"/>
  <variable name="w8_16" index="152" value="1"/>
  <variable name="w15_0" index="255" value="1"/>
  <variable name="w15_1" index="256" value="1"/>
  <variable name="w15_3" index="258" value="1"/>
  <variable name="w15_5" index="260" value="1"/>
  <variable name="w15_16" index="271" value="1"/>
  <variable name="w16_0" index="272" value="1"/>
  <variable name="w16_1" index="273" value="1"/>
  <variable name="w16_3" index="275" value="1"/>
  <variable name="w16_5" index="277" value="1"/>
  <variable name="w16_16" index="288" value="1"/>
  <variable name="w17_0" index="289" value="1"/>
  <variable name="w17_1" index="290" value="1"/>
  <variable name="w17_3" index="292" value="1"/>
  <variable name="w17_5" index="294" value="1"/>
  <variable name="w17_16" index="305" value="1"/>
  <variable name="k2" index="342" value="1"/>
  <variable name="k4" index="344" value="1"/>
  <variable name="k5" index="345" value="1"/>
  <variable name="k7" index="347" value="1"/>
  <variable name="k8" index="348" value="1"/>
  <variable name="k15" index="355" value="1"/>
  <variable name="k16" index="356" value="1"/>
  <variable name="k17" index="357" value="1"/>
  <variable name="x0_24" index="384" value="1"/>
  <variable name="x1_41" index="501" value="1"/>
  <variable name="x2_46" index="606" value="1"/>
  <variable name="x3_35" index="695" value="1"/>
  <variable name="x4_39" index="799" value="1"/>
  <variable name="x5_40" index="900" value="1"/>
  <variable name="x6_68" index="1028" value="1"/>
  <variable name="x7_33" index="1093" value="1"/>
  <variable name="x8_94" index="1254" value="1"/>
  <variable name="x9_44" index="1304" value="1"/>
  <variable name="x10_99" index="1459" value="1"/>
  <variable name="x11_83" index="1543" value="1"/>
  <variable name="x12_47" index="1607" value="1"/>
  <variable name="x13_45" index="1705" value="1"/>
  <variable name="x14_73" index="1833" value="1"/>
  <variable name="x15_66" index="1926" value="1"/>
  <variable name="x16_62" index="2022" value="1"/>
  <variable name="x17_63" index="2123" value="1"/>
  <variable name="x18_97" index="2257" value="1"/>
  <variable name="x19_28" index="2288" value="1"/>
  <variable name="x20_20" index="2380" value="1"/>
  <variable name="x21_77" index="2537" value="1"/>
  <variable name="x22_22" index="2582" value="1"/>
  <variable name="x23_14" index="2674" value="1"/>
  <variable name="x24_58" index="2818" value="1"/>
  <variable name="x25_54" index="2914" value="1"/>
  <variable name="x26_74" index="3034" value="1"/>
  <variable name="x27_76" index="3136" value="1"/>
  <variable name="x28_80" index="3240" value="1"/>
  <variable name="x29_81" index="3341" value="1"/>
  <variable name="x30_17" index="3377" value="1"/>
  <variable name="x31_6" index="3466" value="1"/>
  <variable name="x32_57" index="3617" value="1"/>
  <variable name="x33_9" index="3669" value="1"/>
  <variable name="x34_56" index="3816" value="1"/>
  <variable name="x35_79" index="3939" value="1"/>
  <variable name="x36_11" index="3971" value="1"/>
  <variable name="x37_59" index="4119" value="1"/>
  <variable name="x38_52" index="4212" value="1"/>
  <variable name="x39_55" index="4315" value="1"/>
  <variable name="x40_53" index="4413" value="1"/>
  <variable name="x41_60" index="4520" value="1"/>
  <variable name="x42_78" index="4638" value="1"/>
  <variable name="x43_4" index="4664" value="1"/>
  <variable name="x44_1" index="4761" value="1"/>
  <variable name="x45_3" index="4863" value="1"/>
  <variable name="x46_8" index="4968" value="1"/>
  <variable name="x47_10" index="5070" value="1"/>
  <variable name="x48_75" index="5235" value="1"/>
  <variable name="x49_2" index="5262" value="1"/>
  <variable name="x50_50" index="5410" value="1"/>
  <variable name="x51_61" index="5521" value="1"/>
  <variable name="x52_49" index="5609" value="1"/>
  <variable name="x53_38" index="5698" value="1"/>
  <variable name="x54_32" index="5792" value="1"/>
  <variable name="x55_90" index="5950" value="1"/>
  <variable name="x56_42" index="6002" value="1"/>
  <variable name="x57_34" index="6094" value="1"/>
  <variable name="x58_23" index="6183" value="1"/>
  <variable name="x59_48" index="6308" value="1"/>
  <variable name="x60_71" index="6431" value="1"/>
  <variable name="x61_25" index="6485" value="1"/>
  <variable name="x62_27" index="6587" value="1"/>
  <variable name="x63_0" index="6660" value="1"/>
  <variable name="x64_7" index="6767" value="1"/>
  <variable name="x65_65" index="6925" value="1"/>
  <variable name="x66_15" index="6975" value="1"/>
  <variable name="x67_67" index="7127" value="1"/>
  <variable name="x68_18" index="7178" value="1"/>
  <variable name="x69_5" index="7265" value="1"/>
  <variable name="x70_70" index="7430" value="1"/>
  <variable name="x71_13" index="7473" value="1"/>
  <variable name="x72_72" index="7632" value="1"/>
  <variable name="x73_16" index="7676" value="1"/>
  <variable name="x74_29" index="7789" value="1"/>
  <variable name="x75_36" index="7896" value="1"/>
  <variable name="x76_26" index="7986" value="1"/>
  <variable name="x77_64" index="8124" value="1"/>
  <variable name="x78_43" index="8203" value="1"/>
  <variable name="x79_21" index="8281" value="1"/>
  <variable name="x80_69" index="8429" value="1"/>
  <variable name="x81_95" index="8555" value="1"/>
  <variable name="x82_82" index="8642" value="1"/>
  <variable name="x83_37" index="8697" value="1"/>
  <variable name="x84_84" index="8844" value="1"/>
  <variable name="x85_85" index="8945" value="1"/>
  <variable name="x86_86" index="9046" value="1"/>
  <variable name="x87_87" index="9147" value="1"/>
  <variable name="x88_88" index="9248" value="1"/>
  <variable name="x89_89" index="9349" value="1"/>
  <variable name="x90_12" index="9372" value="1"/>
  <variable name="x91_91" index="9551" value="1"/>
  <variable name="x92_92" index="9652" value="1"/>
  <variable name="x93_93" index="9753" value="1"/>
  <variable name="x94_31" index="9791" value="1"/>
  <variable name="x95_51" index="9911" value="1"/>
  <variable name="x96_96" index="10056" value="1"/>
  <variable name="x97_30" index="10090" value="1"/>
  <variable name="x98_98" index="10258" value="1"/>
  <variable name="x99_19" index="10279" value="1"/>
  <variable name="u0" index="10360" value="1"/>
  <variable name="u1" index="10361" value="1"/>
  <variable name="u3" index="10363" value="1"/>
  <variable name="u5" index="10365" value="1"/>
  <variable name="u16" index="10376" value="1"/>
 </variables>
</CPLEXSolution>
